(set-option :print-success false)
(set-logic QF_SO)
(set-info :status unsat)
(declare-fun x ( ) Int)
(declare-fun y ( ) Int)
(declare-fun z ( ) Int)
(assert (<= x y))
(assert (<= y z))
(assert (<= z x))
(check-sat)
